p cnf 512 276 
512 -512 0 
-131 131 0 
-131 142 -142 0 
-131 142 153 0 
-131 -153 -142 0 
-131 -153 153 0 
-142 142 131 0 
-142 142 142 -142 0 
-142 142 142 153 0 
-142 142 -153 -142 0 
-142 142 -153 153 0 
-142 153 131 0 
-142 153 142 -142 0 
-142 153 142 153 0 
-142 153 -153 -142 0 
-142 153 -153 153 0 
-153 142 131 0 
-153 142 142 -142 0 
-153 142 142 153 0 
-153 142 -153 -142 0 
-153 142 -153 153 0 
-153 153 131 0 
-153 153 142 -142 0 
-153 153 142 153 0 
-153 153 -153 -142 0 
-153 153 -153 153 0 
-118 118 0 
-118 128 -128 0 
-118 128 138 0 
-118 -138 -128 0 
-118 -138 138 0 
-128 128 118 0 
-128 128 128 -128 0 
-128 128 128 138 0 
-128 128 -138 -128 0 
-128 128 -138 138 0 
-128 138 118 0 
-128 138 128 -128 0 
-128 138 128 138 0 
-128 138 -138 -128 0 
-128 138 -138 138 0 
-138 128 118 0 
-138 128 128 -128 0 
-138 128 128 138 0 
-138 128 -138 -128 0 
-138 128 -138 138 0 
-138 138 118 0 
-138 138 128 -128 0 
-138 138 128 138 0 
-138 138 -138 -128 0 
-138 138 -138 138 0 
-105 105 0 
-105 114 -114 0 
-105 114 123 0 
-105 -123 -114 0 
-105 -123 123 0 
-114 114 105 0 
-114 114 114 -114 0 
-114 114 114 123 0 
-114 114 -123 -114 0 
-114 114 -123 123 0 
-114 123 105 0 
-114 123 114 -114 0 
-114 123 114 123 0 
-114 123 -123 -114 0 
-114 123 -123 123 0 
-123 114 105 0 
-123 114 114 -114 0 
-123 114 114 123 0 
-123 114 -123 -114 0 
-123 114 -123 123 0 
-123 123 105 0 
-123 123 114 -114 0 
-123 123 114 123 0 
-123 123 -123 -114 0 
-123 123 -123 123 0 
-92 92 0 
-92 100 -100 0 
-92 100 108 0 
-92 -108 -100 0 
-92 -108 108 0 
-100 100 92 0 
-100 100 100 -100 0 
-100 100 100 108 0 
-100 100 -108 -100 0 
-100 100 -108 108 0 
-100 108 92 0 
-100 108 100 -100 0 
-100 108 100 108 0 
-100 108 -108 -100 0 
-100 108 -108 108 0 
-108 100 92 0 
-108 100 100 -100 0 
-108 100 100 108 0 
-108 100 -108 -100 0 
-108 100 -108 108 0 
-108 108 92 0 
-108 108 100 -100 0 
-108 108 100 108 0 
-108 108 -108 -100 0 
-108 108 -108 108 0 
-79 79 0 
-79 86 -86 0 
-79 86 93 0 
-79 -93 -86 0 
-79 -93 93 0 
-86 86 79 0 
-86 86 86 -86 0 
-86 86 86 93 0 
-86 86 -93 -86 0 
-86 86 -93 93 0 
-86 93 79 0 
-86 93 86 -86 0 
-86 93 86 93 0 
-86 93 -93 -86 0 
-86 93 -93 93 0 
-93 86 79 0 
-93 86 86 -86 0 
-93 86 86 93 0 
-93 86 -93 -86 0 
-93 86 -93 93 0 
-93 93 79 0 
-93 93 86 -86 0 
-93 93 86 93 0 
-93 93 -93 -86 0 
-93 93 -93 93 0 
-66 66 0 
-66 72 -72 0 
-66 72 78 0 
-66 -78 -72 0 
-66 -78 78 0 
-72 72 66 0 
-72 72 72 -72 0 
-72 72 72 78 0 
-72 72 -78 -72 0 
-72 72 -78 78 0 
-72 78 66 0 
-72 78 72 -72 0 
-72 78 72 78 0 
-72 78 -78 -72 0 
-72 78 -78 78 0 
-78 72 66 0 
-78 72 72 -72 0 
-78 72 72 78 0 
-78 72 -78 -72 0 
-78 72 -78 78 0 
-78 78 66 0 
-78 78 72 -72 0 
-78 78 72 78 0 
-78 78 -78 -72 0 
-78 78 -78 78 0 
-53 53 0 
-53 58 -58 0 
-53 58 63 0 
-53 -63 -58 0 
-53 -63 63 0 
-58 58 53 0 
-58 58 58 -58 0 
-58 58 58 63 0 
-58 58 -63 -58 0 
-58 58 -63 63 0 
-58 63 53 0 
-58 63 58 -58 0 
-58 63 58 63 0 
-58 63 -63 -58 0 
-58 63 -63 63 0 
-63 58 53 0 
-63 58 58 -58 0 
-63 58 58 63 0 
-63 58 -63 -58 0 
-63 58 -63 63 0 
-63 63 53 0 
-63 63 58 -58 0 
-63 63 58 63 0 
-63 63 -63 -58 0 
-63 63 -63 63 0 
-40 40 0 
-40 44 -44 0 
-40 44 48 0 
-40 -48 -44 0 
-40 -48 48 0 
-44 44 40 0 
-44 44 44 -44 0 
-44 44 44 48 0 
-44 44 -48 -44 0 
-44 44 -48 48 0 
-44 48 40 0 
-44 48 44 -44 0 
-44 48 44 48 0 
-44 48 -48 -44 0 
-44 48 -48 48 0 
-48 44 40 0 
-48 44 44 -44 0 
-48 44 44 48 0 
-48 44 -48 -44 0 
-48 44 -48 48 0 
-48 48 40 0 
-48 48 44 -44 0 
-48 48 44 48 0 
-48 48 -48 -44 0 
-48 48 -48 48 0 
-27 27 0 
-27 30 -30 0 
-27 30 33 0 
-27 -33 -30 0 
-27 -33 33 0 
-30 30 27 0 
-30 30 30 -30 0 
-30 30 30 33 0 
-30 30 -33 -30 0 
-30 30 -33 33 0 
-30 33 27 0 
-30 33 30 -30 0 
-30 33 30 33 0 
-30 33 -33 -30 0 
-30 33 -33 33 0 
-33 30 27 0 
-33 30 30 -30 0 
-33 30 30 33 0 
-33 30 -33 -30 0 
-33 30 -33 33 0 
-33 33 27 0 
-33 33 30 -30 0 
-33 33 30 33 0 
-33 33 -33 -30 0 
-33 33 -33 33 0 
-14 14 0 
-14 16 -16 0 
-14 16 18 0 
-14 -18 -16 0 
-14 -18 18 0 
-16 16 14 0 
-16 16 16 -16 0 
-16 16 16 18 0 
-16 16 -18 -16 0 
-16 16 -18 18 0 
-16 18 14 0 
-16 18 16 -16 0 
-16 18 16 18 0 
-16 18 -18 -16 0 
-16 18 -18 18 0 
-18 16 14 0 
-18 16 16 -16 0 
-18 16 16 18 0 
-18 16 -18 -16 0 
-18 16 -18 18 0 
-18 18 14 0 
-18 18 16 -16 0 
-18 18 16 18 0 
-18 18 -18 -16 0 
-18 18 -18 18 0 
-1 1 0 
-1 2 -2 0 
-1 2 3 0 
-1 -3 -2 0 
-1 -3 3 0 
-2 2 1 0 
-2 2 2 -2 0 
-2 2 2 3 0 
-2 2 -3 -2 0 
-2 2 -3 3 0 
-2 3 1 0 
-2 3 2 -2 0 
-2 3 2 3 0 
-2 3 -3 -2 0 
-2 3 -3 3 0 
-3 2 1 0 
-3 2 2 -2 0 
-3 2 2 3 0 
-3 2 -3 -2 0 
-3 2 -3 3 0 
-3 3 1 0 
-3 3 2 -2 0 
-3 3 2 3 0 
-3 3 -3 -2 0 
-3 3 -3 3 0 


